Data path: /scratch/opt/lxu/CFLG/benchmarks/tree_B
Instance: treeB.400.40
Result path: /scratch/opt/lxu/CFLG/results/tree_B
Solver: Gurobi
Time limit: 7200
Formulation: LEFPAV
Cover: Large
julia --project=. src/main.jl /scratch/opt/lxu/CFLG/benchmarks/tree_B treeB.400.40 /scratch/opt/lxu/CFLG/results/tree_B Gurobi 7200 LEFPAV Large
The latest version of Julia in the `release` channel is 1.11.5+0.x64.linux.gnu. You currently have `1.11.4+0.x64.linux.gnu` installed. Run:

  juliaup update

in your terminal shell to install Julia 1.11.5+0.x64.linux.gnu and update the `release` channel to that version.
/scratch/opt/lxu/CFLG/benchmarks/tree_B Gurobi 7200.0 /scratch/opt/lxu/CFLG/results/tree_B treeB.400.40 LEFPAV Large
/scratch/opt/lxu/CFLG/benchmarks/tree_B/treeB.400.40

 read graph
data loaded

problem_graph/original graph: node: 400/400 edge: 439/439 dlt: 2.993443907770228 break_avg_len: 1.496721953885114 break_max_len: 1.9993735655001792Vbar/V, Ebar/E(187, 400, 226, 439)
Set parameter TokenServer to value "solice01.zib.de"
Set parameter Threads to value 1
Set parameter OutputFlag to value 1
Gurobi Optimizer version 12.0.1 build v12.0.1rc0 (linux64 - "Debian GNU/Linux 12 (bookworm)")

CPU model: Intel(R) Xeon(R) Gold 5122 CPU @ 3.60GHz, instruction set [SSE2|AVX|AVX2|AVX512]
Thread count: 8 physical cores, 16 logical processors, using up to 1 threads

Non-default parameters:
Threads  1

Optimize a model with 559 rows, 897 columns and 1495 nonzeros
Model fingerprint: 0xc06b77f6
Coefficient statistics:
  Matrix range     [1e+00, 1e+00]
  Objective range  [1e+00, 1e+00]
  Bounds range     [1e+00, 1e+00]
  RHS range        [1e+00, 1e+00]
Presolve removed 559 rows and 897 columns
Presolve time: 0.00s
Presolve: All rows and columns removed
Iteration    Objective       Primal Inf.    Dual Inf.      Time
       0    7.3000000e+01   0.000000e+00   0.000000e+00      0s

Solved in 0 iterations and 0.00 seconds (0.00 work units)
Optimal objective  7.300000000e+01

User-callback calls 35, time in user-callback 0.00 sec
elapsed CPU time: 1.354896 seconds
Set parameter TokenServer to value "solice01.zib.de"
Set parameter Threads to value 1
Set parameter OutputFlag to value 1
Set parameter MIPGap to value 0.0001
Set parameter MIPGapAbs to value 0.999998
Set parameter TimeLimit to value 7198.645104

 more cuts: false 2.993443907770228 false
is_attach:trueformulation:LEFPAV0 299 0
Set parameter PreCrush to value 1

 model loaded

Gurobi Optimizer version 12.0.1 build v12.0.1rc0 (linux64 - "Debian GNU/Linux 12 (bookworm)")

CPU model: Intel(R) Xeon(R) Gold 5122 CPU @ 3.60GHz, instruction set [SSE2|AVX|AVX2|AVX512]
Thread count: 8 physical cores, 16 logical processors, using up to 1 threads

Non-default parameters:
TimeLimit  7198.645104
MIPGapAbs  0.999998
PreCrush  1
Threads  1

Optimize a model with 8361 rows, 4969 columns and 23041 nonzeros
Model fingerprint: 0xe1c05f46
Variable types: 858 continuous, 4111 integer (4111 binary)
Coefficient statistics:
  Matrix range     [1e-06, 6e+00]
  Objective range  [1e+00, 1e+00]
  Bounds range     [2e-03, 3e+00]
  RHS range        [1e-06, 6e+00]
Presolve removed 4554 rows and 2487 columns
Presolve time: 0.14s
Presolved: 3807 rows, 2482 columns, 16747 nonzeros
Variable types: 411 continuous, 2071 integer (2071 binary)
Found heuristic solution: objective 285.0000000
Found heuristic solution: objective 278.0000000
Found heuristic solution: objective 191.0000000

Root relaxation: objective 8.190440e+01, 2492 iterations, 0.05 seconds (0.05 work units)

    Nodes    |    Current Node    |     Objective Bounds      |     Work
 Expl Unexpl |  Obj  Depth IntInf | Incumbent    BestBd   Gap | It/Node Time

     0     0   81.90440    0  597  191.00000   81.90440  57.1%     -    0s
H    0     0                     186.0000000   81.90440  56.0%     -    0s
H    0     0                     140.0000000   81.90440  41.5%     -    0s
H    0     0                     139.0000000   81.90440  41.1%     -    0s
H    0     0                     138.0000000   81.90440  40.6%     -    0s
H    0     0                     137.0000000   81.90440  40.2%     -    0s
elapsed CPU time: 1.383595557889363e13 seconds
     0     0   89.41428    0  697  137.00000   89.41428  34.7%     -    1s
H    0     0                     127.0000000   89.42650  29.6%     -    1s
H    0     0                     126.0000000   89.42650  29.0%     -    1s
elapsed CPU time: 1.383055445565481e13 seconds
     0     0   89.43962    0  693  126.00000   89.43962  29.0%     -    1s
elapsed CPU time: 0.016455 seconds
     0     0   89.47904    0  703  126.00000   89.47904  29.0%     -    1s
elapsed CPU time: 0.016123 seconds
     0     0   89.47904    0  702  126.00000   89.47904  29.0%     -    1s
elapsed CPU time: 0.016277 seconds
     0     0   93.49536    0  701  126.00000   93.49536  25.8%     -    1s
H    0     0                     121.0000000   93.49536  22.7%     -    1s
H    0     0                     120.0000000   93.49536  22.1%     -    1s
elapsed CPU time: 0.016696 seconds
     0     0   93.57351    0  681  120.00000   93.57351  22.0%     -    1s
elapsed CPU time: 0.016441 seconds
     0     0   93.59242    0  675  120.00000   93.59242  22.0%     -    1s
elapsed CPU time: 0.016457 seconds
     0     0   93.59242    0  675  120.00000   93.59242  22.0%     -    1s
elapsed CPU time: 0.016213 seconds
     0     0   94.81916    0  573  120.00000   94.81916  21.0%     -    1s
H    0     0                     119.0000000   95.06916  20.1%     -    1s
elapsed CPU time: 0.01721 seconds
     0     0   95.06916    0  554  119.00000   95.06916  20.1%     -    1s
elapsed CPU time: 1.3830554455654832e13 seconds
     0     0   95.06916    0  548  119.00000   95.06916  20.1%     -    1s
elapsed CPU time: 0.016364 seconds
     0     0   95.29365    0  546  119.00000   95.29365  19.9%     -    1s
H    0     0                     118.0000000   95.29365  19.2%     -    1s
elapsed CPU time: 9.667971399728e6 seconds
     0     0   95.29530    0  524  118.00000   95.29530  19.2%     -    1s
elapsed CPU time: 0.016299 seconds
     0     0   95.45454    0  554  118.00000   95.45454  19.1%     -    1s
elapsed CPU time: 0.016385 seconds
     0     0   95.62121    0  561  118.00000   95.62121  19.0%     -    1s
elapsed CPU time: 0.016462 seconds
     0     0   95.62121    0  611  118.00000   95.62121  19.0%     -    1s
H    0     0                     116.0000000   95.65630  17.5%     -    2s
elapsed CPU time: 0.016523 seconds
     0     0   95.65630    0  625  116.00000   95.65630  17.5%     -    2s
elapsed CPU time: 0.01638 seconds
     0     0   95.65630    0  607  116.00000   95.65630  17.5%     -    2s
elapsed CPU time: 0.016416 seconds
     0     0   95.65630    0  597  116.00000   95.65630  17.5%     -    2s
elapsed CPU time: 0.016097 seconds
     0     0   95.65630    0  606  116.00000   95.65630  17.5%     -    2s
elapsed CPU time: 0.032774 seconds
     0     0   95.65630    0  606  116.00000   95.65630  17.5%     -    2s
elapsed CPU time: 0.016116 seconds
     0     0   95.66580    0  578  116.00000   95.66580  17.5%     -    2s
elapsed CPU time: 0.01628 seconds
     0     0   95.67172    0  592  116.00000   95.67172  17.5%     -    2s
elapsed CPU time: 0.016139 seconds
     0     0   95.67172    0  590  116.00000   95.67172  17.5%     -    2s
elapsed CPU time: 0.016248 seconds
     0     0   95.72598    0  591  116.00000   95.72598  17.5%     -    2s
elapsed CPU time: 0.016322 seconds
     0     0   95.72946    0  612  116.00000   95.72946  17.5%     -    2s
elapsed CPU time: 0.016257 seconds
     0     0   95.73854    0  590  116.00000   95.73854  17.5%     -    2s
elapsed CPU time: 0.0165 seconds
     0     0   95.73854    0  426  116.00000   95.73854  17.5%     -    2s
elapsed CPU time: 0.017023 seconds
H    0     0                     115.0000000   95.75339  16.7%     -    2s
H    0     0                     114.0000000   95.75339  16.0%     -    2s
H    0     0                     113.0000000   95.75339  15.3%     -    2s
H    0     0                     112.0000000   95.75339  14.5%     -    2s
H    0     0                     111.0000000   95.75339  13.7%     -    2s
H    0     0                     110.0000000   95.75339  13.0%     -    2s
elapsed CPU time: 1.843959263103918e13 seconds
     0     2   95.78367    0  474  110.00000   95.78367  12.9%     -    2s
H   26    26                     109.0000000   95.78367  12.1%   105    3s
H   60    58                     108.0000000   95.78367  11.3%  65.3    3s
   543   492  104.01330   66  426  108.00000   96.19880  10.9%  35.3    5s
   589   523  107.00000  116  379  108.00000  100.62677  6.83%  32.5   10s
H  604   505                     107.0000000  101.04563  5.56%  31.7   12s
   641   529  101.87405   39  360  107.00000  101.87405  4.79%  29.9   15s
   851   653  105.80738   63  113  107.00000  102.02857  4.65%   178   20s
  1262   811  103.80163   31  338  107.00000  102.30781  4.39%   144   25s
  1848  1051  105.55502   59  219  107.00000  102.36026  4.34%   118   30s
  2809  1531  102.79286   32  302  107.00000  102.54535  4.16%  97.6   35s
  3805  2133  104.27676   37  351  107.00000  102.62101  4.09%  87.2   40s
  4920  2849  104.82311   45  300  107.00000  102.70172  4.02%  81.2   45s
  5827  3414  104.34777   57  276  107.00000  102.75365  3.97%  78.3   50s
  6776  3983  103.20338   35  336  107.00000  102.79448  3.93%  76.1   55s
  7751  4616  105.32466   39  259  107.00000  102.83653  3.89%  74.1   60s
  8746  5180  103.59428   31  308  107.00000  102.88036  3.85%  73.6   65s
  9698  5756  103.49692   36  278  107.00000  102.90574  3.83%  72.7   70s
 10203  6036  103.78697   47  426  107.00000  102.92332  3.81%  72.3   82s
 10220  6047  104.57776   43  365  107.00000  102.92332  3.81%  72.2   85s
 10244  6063  104.77778   40  419  107.00000  102.92332  3.81%  72.0   90s
 10261  6075  105.56701   50  358  107.00000  102.92332  3.81%  71.9   95s
 10279  6087  103.14094   30  422  107.00000  102.92332  3.81%  71.8  100s
 10295  6097  104.82717   42  370  107.00000  102.96517  3.77%  71.7  105s
 10310  6107  103.42953   40  349  107.00000  103.16029  3.59%  71.6  110s
 10328  6119  104.21542   39  415  107.00000  103.28175  3.47%  71.4  115s
 10342  6129  105.39983   61  397  107.00000  103.28175  3.47%  71.3  120s
 10354  6137  103.40389   31  348  107.00000  103.28175  3.47%  71.3  125s
 10372  6149  103.28175   33  453  107.00000  103.28175  3.47%  71.1  130s
 10397  6165  104.31508   39  401  107.00000  103.41263  3.35%  71.0  135s
 10429  6187  105.50000   47  417  107.00000  103.41263  3.35%  70.7  140s
 10602  6257  104.08542   42  348  107.00000  103.72999  3.06%  99.4  145s
 10837  6308  104.38263   45  410  107.00000  104.01707  2.79%  99.0  150s
 11201  6376  106.00000   53  295  107.00000  104.14708  2.67%  97.9  155s
 11783  6477  105.71178   49  393  107.00000  104.27963  2.54%  96.8  160s
 12799  6596  105.57811   47  335  107.00000  104.42775  2.40%  94.1  165s
 13663  6663  105.95000   58  261  107.00000  104.51874  2.32%  92.5  170s
 14719  6693     cutoff   56       107.00000  104.61667  2.23%  90.1  175s
 15799  6758  105.63774   52  349  107.00000  104.67500  2.17%  88.3  180s
 16997  6720  105.20220   47  413  107.00000  104.74388  2.11%  86.5  185s
 18331  6662  105.68422   47  377  107.00000  104.80575  2.05%  84.5  190s
 19531  6573  105.86714   54  258  107.00000  104.85893  2.00%  83.1  195s
 20854  6458     cutoff   50       107.00000  104.91551  1.95%  81.3  200s
 22152  6294  106.00000   56  164  107.00000  104.96700  1.90%  80.0  205s
 23397  6101  105.00000   48  275  107.00000  105.00000  1.87%  78.8  210s
 24569  5958  106.00000   62  134  107.00000  105.03333  1.84%  77.9  215s
 25889  5787  105.43698   48  435  107.00000  105.07177  1.80%  76.7  220s
 27125  5619  106.00000   56  136  107.00000  105.10000  1.78%  75.9  225s
 28411  5383  105.48962   49  374  107.00000  105.14209  1.74%  75.1  230s
 29592  5325  105.83333   49  301  107.00000  105.18333  1.70%  74.7  235s
 31152  5571  106.00000   56  216  107.00000  105.20000  1.68%  73.1  240s
 32460  5719  105.75510   54  291  107.00000  105.23158  1.65%  72.5  245s
 33679  5876  105.84738   52  301  107.00000  105.25000  1.64%  72.0  250s
 34844  6008  105.90000   52  299  107.00000  105.27267  1.61%  71.6  255s
 36013  6044  106.00000   58  141  107.00000  105.30000  1.59%  71.2  260s
 37214  6086  105.53333   50  268  107.00000  105.33333  1.56%  70.8  265s
 38393  6203  106.00000   58  136  107.00000  105.35000  1.54%  70.6  270s
 39545  6231  105.83333   53  181  107.00000  105.37500  1.52%  70.2  275s
 40780  6216  105.91677   52  435  107.00000  105.40933  1.49%  70.0  280s
 41984  6180  105.76454   49  329  107.00000  105.44444  1.45%  69.8  285s
 43403  6257  105.76667   57  244  107.00000  105.46667  1.43%  69.1  290s
 44561  6214  105.70000   51  154  107.00000  105.50000  1.40%  69.1  295s
 45838  6273     cutoff   53       107.00000  105.50000  1.40%  68.9  300s
 46832  6307     cutoff   53       107.00000  105.50000  1.40%  69.0  305s
 47785  6233  105.89332   59  318  107.00000  105.51220  1.39%  69.2  310s
 48778  6150  105.79524   55  287  107.00000  105.53333  1.37%  69.2  315s
 49879  5974  106.00000   55  200  107.00000  105.55856  1.35%  69.2  320s
 51021  5810  105.93309   56  331  107.00000  105.59825  1.31%  69.2  325s
 52329  5677  105.62857   57  267  107.00000  105.62857  1.28%  68.8  330s
 53486  5347  105.94680   55  274  107.00000  105.66667  1.25%  68.7  335s
 54745  5103  106.00000   55  142  107.00000  105.70000  1.21%  68.4  340s
 56357  5216  106.00000   66  126  107.00000  105.70000  1.21%  67.5  345s
 57832  5360  106.00000   57  207  107.00000  105.70000  1.21%  66.7  350s
 59082  5181  105.82599   50  328  107.00000  105.73333  1.18%  66.4  355s
 60545  5137  106.00000   54  150  107.00000  105.75000  1.17%  65.7  360s
 62108  5229     cutoff   53       107.00000  105.75000  1.17%  64.9  365s
 63160  5024  105.78462   54  340  107.00000  105.78462  1.14%  64.7  370s
 64336  4562  105.91742   50  286  107.00000  105.83333  1.09%  64.5  375s
 65668  3978     cutoff   54       107.00000  105.91667  1.01%  64.2  380s
 67040  3525  106.00000   64   86  107.00000  106.00000  0.93%  63.7  385s
 68517  3416  106.00000   71  129  107.00000  106.00000  0.93%  63.0  390s
 69949  3311  106.00000   61  111  107.00000  106.00000  0.93%  62.4  395s
 71472  3233     cutoff   62       107.00000  106.00000  0.93%  61.8  400s
 72776  3131  106.00000   79  141  107.00000  106.00000  0.93%  61.3  405s
 74297  3065     cutoff   65       107.00000  106.00000  0.93%  60.6  410s
 75760  2952  106.00000   65  107  107.00000  106.00000  0.93%  60.1  415s
 77272  2854  106.00000   62  138  107.00000  106.00000  0.93%  59.5  420s
 78611  2801  106.00000   68  101  107.00000  106.00000  0.93%  59.0  425s
 79990  2668  106.00000   65  113  107.00000  106.00000  0.93%  58.7  430s
 81329  2552  106.00000   60  116  107.00000  106.00000  0.93%  58.3  435s
 82783  2467  106.00000   61  158  107.00000  106.00000  0.93%  57.9  440s
 84224  2435  106.00000   71  132  107.00000  106.00000  0.93%  57.4  445s
 85647  2377     cutoff   76       107.00000  106.00000  0.93%  56.9  450s
 87081  2301  106.00000   78  129  107.00000  106.00000  0.93%  56.5  455s
 88520  2211  106.00000   65  106  107.00000  106.00000  0.93%  56.1  460s
 89948  2146  106.00000   64  130  107.00000  106.00000  0.93%  55.7  465s
 91341  2036  106.00000   59  133  107.00000  106.00000  0.93%  55.3  470s
 92904  1993  106.00000   75  115  107.00000  106.00000  0.93%  54.8  475s
 94362  1880  106.00000   60  176  107.00000  106.00000  0.93%  54.4  480s
 95814  1775  106.00000   69  179  107.00000  106.00000  0.93%  54.1  485s
 97281  1667  106.00000   62  134  107.00000  106.00000  0.93%  53.8  490s
 98703  1643  106.00000   79   43  107.00000  106.00000  0.93%  53.4  495s
 100143  1609     cutoff   67       107.00000  106.00000  0.93%  53.1  500s
 101642  1528     cutoff   68       107.00000  106.00000  0.93%  52.8  505s
 103026  1470  106.00000   64  118  107.00000  106.00000  0.93%  52.5  510s
 104405  1386  106.00000   70  155  107.00000  106.00000  0.93%  52.2  515s
 105829  1299     cutoff   61       107.00000  106.00000  0.93%  51.9  520s
 107136  1228     cutoff   62       107.00000  106.00000  0.93%  51.7  525s
 108507  1145  106.00000   67  193  107.00000  106.00000  0.93%  51.5  530s
 109914  1063  106.00000   57  265  107.00000  106.00000  0.93%  51.2  535s
 111095   980  106.00000   66  100  107.00000  106.00000  0.93%  51.0  540s
 112602   945  106.00000   72  127  107.00000  106.00000  0.93%  50.7  545s
 113679   907     cutoff   64       107.00000  106.00000  0.93%  50.5  550s
 115088   807  106.00000   69  105  107.00000  106.00000  0.93%  50.4  555s
 116361   797  106.00000   78  155  107.00000  106.00000  0.93%  50.3  560s
 117618   727  106.00000   64  150  107.00000  106.00000  0.93%  50.2  565s
 119013   618  106.00000   64  130  107.00000  106.00000  0.93%  50.0  570s
 120375   525  106.00000   62   72  107.00000  106.00000  0.93%  49.8  575s
 121884   534  106.00000   64  157  107.00000  106.00000  0.93%  49.5  580s
 123251   447     cutoff   69       107.00000  106.00000  0.93%  49.4  585s
 124649   423  106.00000   75  162  107.00000  106.00000  0.93%  49.2  590s
 126025   382  106.00000   59  177  107.00000  106.00000  0.93%  49.0  595s
 127432   289  106.00000   64  162  107.00000  106.00000  0.93%  48.8  600s
 128836   255  106.00000   67  142  107.00000  106.00000  0.93%  48.6  605s
 130299   186     cutoff   77       107.00000  106.00000  0.93%  48.4  610s
 131720   183  106.00000   70  184  107.00000  106.00000  0.93%  48.2  615s
 133240   159  106.00000   65  208  107.00000  106.00000  0.93%  48.0  620s
 134631    94  106.00000   64  183  107.00000  106.00000  0.93%  47.9  625s

Cutting planes:
  User: 3
  Learned: 5
  Gomory: 23
  Cover: 126
  Implied bound: 78
  Clique: 3
  MIR: 261
  Mixing: 6
  Flow cover: 907
  GUB cover: 111
  Inf proof: 4
  Zero half: 270
  RLT: 59
  Relax-and-lift: 84
  BQP: 6

Explored 135911 nodes (6506566 simplex iterations) in 629.51 seconds (435.50 work units)
Thread count was 1 (of 16 available processors)

Solution count 10: 107 107 108 ... 113

Optimal solution found (tolerance 1.00e-04)
Best objective 1.070000000000e+02, best bound 1.070000000000e+02, gap 0.0000%

User-callback calls 522368, time in user-callback 2.66 sec

 sepatime5.993666678921426e13 694218 30
107.0Stat(MathOptInterface.OPTIMAL, 107.0, 107.0, 0.0, 5.993666678921426e13, 1.354896, 629.5148818492889, 135911, Main.CFLG.LEFPAV, "", #undef)
ERROR: LoadError: SystemError: opening file "/scratch/opt/lxu/CFLG/results/tree_B/treeB.400.40.LEFPAV.Large": No such file or directory
Stacktrace:
 [1] systemerror(p::String, errno::Int32; extrainfo::Nothing)
   @ Base ./error.jl:176
 [2] systemerror
   @ ./error.jl:175 [inlined]
 [3] open(fname::String; lock::Bool, read::Nothing, write::Nothing, create::Nothing, truncate::Bool, append::Nothing)
   @ Base ./iostream.jl:295
 [4] open
   @ ./iostream.jl:277 [inlined]
 [5] open(fname::String, mode::String; lock::Bool)
   @ Base ./iostream.jl:358
 [6] open
   @ ./iostream.jl:357 [inlined]
 [7] main(args::Vector{String})
   @ Main /scratch/opt/lxu/CFLG/src/main.jl:51
 [8] top-level scope
   @ /scratch/opt/lxu/CFLG/src/main.jl:57
in expression starting at /scratch/opt/lxu/CFLG/src/main.jl:57
srun: error: htc-cmp438: task 0: Exited with exit code 1
